NAME : portcgen-20-40
COMMENT : portcgen N=20, seed=40
TYPE : TSP
DIMENSION : 20
EDGE_WEIGHT_TYPE : EUC_2D
NODE_COORD_SECTION
1 62 92
2 74 116
3 69 99
4 90 82
5 90 104
6 84 92
7 79 102
8 36 50
9 97 111
10 86 91
11 56 83
12 94 98
13 97 96
14 76 98
15 35 36
16 68 107
17 59 53
18 86 87
19 83 92
20 80 94
